CLT04
Position Depot: Center
Horizon for Depot: Large
Position of customers: Cluster
Distribution of the demand: Medium
Width of time windows: Tight
Distribution of the service: Large

VEHICLE 
NUMBER 	 CAPACITY 
 8 	 	 93 
 
CUSTOMER
CUST NO. 	 XCOORD.  	 YCOORD. 	 DEMAND 	 READY TIME 	 DUE DATE 	 SERVICE TIME 
 0 	 	 500 	 	 500 	 	 0 	 	 0 	 	 3943 	 	 0 
  1 	 	 957 	 	 409 	 	 1 	 	 1783 	 	 1918 	 	 187 
  2 	 	 836 	 	 513 	 	 6 	 	 1879 	 	 2005 	 	 176 
  3 	 	 133 	 	 571 	 	 3 	 	 2641 	 	 2712 	 	 178 
  4 	 	 536 	 	 874 	 	 5 	 	 509 	 	 649 	 	 175 
  5 	 	 979 	 	 318 	 	 4 	 	 2155 	 	 2355 	 	 165 
  6 	 	 419 	 	 457 	 	 1 	 	 352 	 	 498 	 	 155 
  7 	 	 803 	 	 453 	 	 1 	 	 1758 	 	 1939 	 	 170 
  8 	 	 976 	 	 328 	 	 1 	 	 2962 	 	 3060 	 	 187 
  9 	 	 973 	 	 458 	 	 7 	 	 3416 	 	 3574 	 	 171 
  10 	 	 479 	 	 524 	 	 8 	 	 842 	 	 931 	 	 136 
  11 	 	 929 	 	 222 	 	 3 	 	 3756 	 	 3943 	 	 148 
  12 	 	 414 	 	 435 	 	 4 	 	 1742 	 	 1871 	 	 178 
  13 	 	 891 	 	 521 	 	 2 	 	 2718 	 	 2786 	 	 168 
  14 	 	 833 	 	 575 	 	 1 	 	 1226 	 	 1395 	 	 156 
  15 	 	 615 	 	 935 	 	 6 	 	 3540 	 	 3634 	 	 175 
  16 	 	 775 	 	 498 	 	 1 	 	 2606 	 	 2761 	 	 128 
  17 	 	 479 	 	 475 	 	 7 	 	 793 	 	 871 	 	 127 
  18 	 	 105 	 	 604 	 	 9 	 	 3814 	 	 3943 	 	 168 
  19 	 	 518 	 	 536 	 	 69 	 	 3592 	 	 3645 	 	 153 
  20 	 	 981 	 	 433 	 	 55 	 	 3407 	 	 3535 	 	 162 
  21 	 	 997 	 	 202 	 	 5 	 	 918 	 	 1073 	 	 192 
  22 	 	 967 	 	 419 	 	 10 	 	 1693 	 	 1794 	 	 111 
  23 	 	 867 	 	 552 	 	 10 	 	 3169 	 	 3232 	 	 188 
  24 	 	 542 	 	 964 	 	 1 	 	 981 	 	 1033 	 	 194 
  25 	 	 916 	 	 398 	 	 6 	 	 2415 	 	 2579 	 	 152 
  26 	 	 873 	 	 537 	 	 2 	 	 1964 	 	 2068 	 	 128 
  27 	 	 814 	 	 274 	 	 59 	 	 1254 	 	 1329 	 	 111 
  28 	 	 761 	 	 624 	 	 7 	 	 2374 	 	 2527 	 	 199 
  29 	 	 778 	 	 476 	 	 4 	 	 2963 	 	 3027 	 	 158 
  30 	 	 417 	 	 581 	 	 4 	 	 2750 	 	 2908 	 	 157 
  31 	 	 967 	 	 223 	 	 65 	 	 2620 	 	 2818 	 	 188 
  32 	 	 440 	 	 461 	 	 4 	 	 3367 	 	 3521 	 	 113 
  33 	 	 513 	 	 406 	 	 1 	 	 437 	 	 599 	 	 104 
  34 	 	 445 	 	 512 	 	 51 	 	 745 	 	 869 	 	 157 
  35 	 	 771 	 	 506 	 	 3 	 	 3042 	 	 3113 	 	 178 
  36 	 	 555 	 	 950 	 	 70 	 	 3798 	 	 3941 	 	 118 
  37 	 	 948 	 	 408 	 	 2 	 	 1054 	 	 1116 	 	 173 
  38 	 	 500 	 	 805 	 	 6 	 	 423 	 	 521 	 	 174 
  39 	 	 939 	 	 321 	 	 5 	 	 456 	 	 521 	 	 140 
  40 	 	 292 	 	 476 	 	 9 	 	 1182 	 	 1253 	 	 184 
  41 	 	 963 	 	 322 	 	 9 	 	 2844 	 	 2971 	 	 154 
  42 	 	 662 	 	 888 	 	 7 	 	 2558 	 	 2647 	 	 151 
  43 	 	 445 	 	 356 	 	 8 	 	 3749 	 	 3838 	 	 140 
  44 	 	 979 	 	 415 	 	 1 	 	 1855 	 	 1956 	 	 104 
  45 	 	 540 	 	 872 	 	 1 	 	 1023 	 	 1175 	 	 191 
  46 	 	 993 	 	 660 	 	 7 	 	 538 	 	 699 	 	 180 
  47 	 	 1000 	 	 360 	 	 9 	 	 868 	 	 942 	 	 139 
  48 	 	 438 	 	 937 	 	 8 	 	 1735 	 	 1865 	 	 121 
  49 	 	 510 	 	 829 	 	 85 	 	 2938 	 	 3086 	 	 123 
  50 	 	 23 	 	 504 	 	 6 	 	 904 	 	 1049 	 	 124 
 